% Generated by MiniZinc 2.9.3
% Solver library: /home/icwmmarijnisse/Pumpkin/minizinc/lib
% Command line invocation: minizinc --compile --fzn ./instance.fzn --ozn ./instance.ozn --solver pumpkin ../../../../benchmarks/models/sudoku/instances/sudoku_alldifferent.mzn ../../../../benchmarks/models/sudoku/instances/sudoku_p15.dzn 

predicate pumpkin_all_different(array [int] of var int: x);
var 1..9: X_INTRODUCED_17_ ::var_is_introduced ;
var 1..9: X_INTRODUCED_18_ ::var_is_introduced ;
var 1..9: X_INTRODUCED_19_ ::var_is_introduced ;
var 1..9: X_INTRODUCED_20_ ::var_is_introduced ;
var 1..9: X_INTRODUCED_21_ ::var_is_introduced ;
var 1..9: X_INTRODUCED_22_ ::var_is_introduced ;
var 1..9: X_INTRODUCED_23_ ::var_is_introduced ;
var 1..9: X_INTRODUCED_24_ ::var_is_introduced ;
var 1..9: X_INTRODUCED_25_ ::var_is_introduced ;
var 1..9: X_INTRODUCED_26_ ::var_is_introduced ;
var 1..9: X_INTRODUCED_27_ ::var_is_introduced ;
var 1..9: X_INTRODUCED_28_ ::var_is_introduced ;
var 1..9: X_INTRODUCED_29_ ::var_is_introduced ;
var 1..9: X_INTRODUCED_30_ ::var_is_introduced ;
var 1..9: X_INTRODUCED_31_ ::var_is_introduced ;
var 1..9: X_INTRODUCED_32_ ::var_is_introduced ;
var 1..9: X_INTRODUCED_33_ ::var_is_introduced ;
var 1..9: X_INTRODUCED_34_ ::var_is_introduced ;
var 1..9: X_INTRODUCED_35_ ::var_is_introduced ;
var 1..9: X_INTRODUCED_36_ ::var_is_introduced ;
var 1..9: X_INTRODUCED_37_ ::var_is_introduced ;
var 1..9: X_INTRODUCED_38_ ::var_is_introduced ;
var 1..9: X_INTRODUCED_39_ ::var_is_introduced ;
var 1..9: X_INTRODUCED_40_ ::var_is_introduced ;
var 1..9: X_INTRODUCED_41_ ::var_is_introduced ;
var 1..9: X_INTRODUCED_42_ ::var_is_introduced ;
var 1..9: X_INTRODUCED_43_ ::var_is_introduced ;
var 1..9: X_INTRODUCED_44_ ::var_is_introduced ;
var 1..9: X_INTRODUCED_45_ ::var_is_introduced ;
var 1..9: X_INTRODUCED_46_ ::var_is_introduced ;
var 1..9: X_INTRODUCED_47_ ::var_is_introduced ;
var 1..9: X_INTRODUCED_48_ ::var_is_introduced ;
var 1..9: X_INTRODUCED_49_ ::var_is_introduced ;
var 1..9: X_INTRODUCED_50_ ::var_is_introduced ;
var 1..9: X_INTRODUCED_51_ ::var_is_introduced ;
var 1..9: X_INTRODUCED_52_ ::var_is_introduced ;
var 1..9: X_INTRODUCED_53_ ::var_is_introduced ;
var 1..9: X_INTRODUCED_54_ ::var_is_introduced ;
var 1..9: X_INTRODUCED_55_ ::var_is_introduced ;
var 1..9: X_INTRODUCED_56_ ::var_is_introduced ;
var 1..9: X_INTRODUCED_57_ ::var_is_introduced ;
var 1..9: X_INTRODUCED_58_ ::var_is_introduced ;
var 1..9: X_INTRODUCED_59_ ::var_is_introduced ;
var 1..9: X_INTRODUCED_60_ ::var_is_introduced ;
var 1..9: X_INTRODUCED_61_ ::var_is_introduced ;
var 1..9: X_INTRODUCED_62_ ::var_is_introduced ;
var 1..9: X_INTRODUCED_63_ ::var_is_introduced ;
var 1..9: X_INTRODUCED_64_ ::var_is_introduced ;
var 1..9: X_INTRODUCED_65_ ::var_is_introduced ;
var 1..9: X_INTRODUCED_66_ ::var_is_introduced ;
var 1..9: X_INTRODUCED_67_ ::var_is_introduced ;
var 1..9: X_INTRODUCED_68_ ::var_is_introduced ;
var 1..9: X_INTRODUCED_69_ ::var_is_introduced ;
var 1..9: X_INTRODUCED_70_ ::var_is_introduced ;
var 1..9: X_INTRODUCED_71_ ::var_is_introduced ;
array [1..81] of var int: X_INTRODUCED_16_:: output_array([1..81]) = [X_INTRODUCED_71_,X_INTRODUCED_70_,4,X_INTRODUCED_69_,5,X_INTRODUCED_68_,9,X_INTRODUCED_67_,X_INTRODUCED_66_,X_INTRODUCED_65_,X_INTRODUCED_64_,X_INTRODUCED_63_,X_INTRODUCED_62_,7,X_INTRODUCED_61_,X_INTRODUCED_60_,X_INTRODUCED_59_,6,3,7,X_INTRODUCED_58_,X_INTRODUCED_57_,X_INTRODUCED_56_,X_INTRODUCED_55_,X_INTRODUCED_54_,X_INTRODUCED_53_,2,X_INTRODUCED_52_,X_INTRODUCED_51_,9,5,X_INTRODUCED_50_,X_INTRODUCED_49_,X_INTRODUCED_48_,8,X_INTRODUCED_47_,X_INTRODUCED_46_,X_INTRODUCED_45_,1,2,X_INTRODUCED_44_,4,3,X_INTRODUCED_43_,X_INTRODUCED_42_,X_INTRODUCED_41_,6,X_INTRODUCED_40_,X_INTRODUCED_39_,X_INTRODUCED_38_,9,2,X_INTRODUCED_37_,X_INTRODUCED_36_,2,X_INTRODUCED_35_,X_INTRODUCED_34_,X_INTRODUCED_33_,X_INTRODUCED_32_,X_INTRODUCED_31_,X_INTRODUCED_30_,9,3,1,X_INTRODUCED_29_,X_INTRODUCED_28_,X_INTRODUCED_27_,4,X_INTRODUCED_26_,X_INTRODUCED_25_,X_INTRODUCED_24_,X_INTRODUCED_23_,X_INTRODUCED_22_,X_INTRODUCED_21_,6,X_INTRODUCED_20_,2,X_INTRODUCED_19_,7,X_INTRODUCED_18_,X_INTRODUCED_17_];
array [1..81] of var int: X_INTRODUCED_72_ ::var_is_introduced  = [X_INTRODUCED_71_,X_INTRODUCED_70_,4,X_INTRODUCED_69_,5,X_INTRODUCED_68_,9,X_INTRODUCED_67_,X_INTRODUCED_66_,X_INTRODUCED_65_,X_INTRODUCED_64_,X_INTRODUCED_63_,X_INTRODUCED_62_,7,X_INTRODUCED_61_,X_INTRODUCED_60_,X_INTRODUCED_59_,6,3,7,X_INTRODUCED_58_,X_INTRODUCED_57_,X_INTRODUCED_56_,X_INTRODUCED_55_,X_INTRODUCED_54_,X_INTRODUCED_53_,2,X_INTRODUCED_52_,X_INTRODUCED_51_,9,5,X_INTRODUCED_50_,X_INTRODUCED_49_,X_INTRODUCED_48_,8,X_INTRODUCED_47_,X_INTRODUCED_46_,X_INTRODUCED_45_,1,2,X_INTRODUCED_44_,4,3,X_INTRODUCED_43_,X_INTRODUCED_42_,X_INTRODUCED_41_,6,X_INTRODUCED_40_,X_INTRODUCED_39_,X_INTRODUCED_38_,9,2,X_INTRODUCED_37_,X_INTRODUCED_36_,2,X_INTRODUCED_35_,X_INTRODUCED_34_,X_INTRODUCED_33_,X_INTRODUCED_32_,X_INTRODUCED_31_,X_INTRODUCED_30_,9,3,1,X_INTRODUCED_29_,X_INTRODUCED_28_,X_INTRODUCED_27_,4,X_INTRODUCED_26_,X_INTRODUCED_25_,X_INTRODUCED_24_,X_INTRODUCED_23_,X_INTRODUCED_22_,X_INTRODUCED_21_,6,X_INTRODUCED_20_,2,X_INTRODUCED_19_,7,X_INTRODUCED_18_,X_INTRODUCED_17_];
array [1..9] of var int: X_INTRODUCED_73_ ::var_is_introduced  = [X_INTRODUCED_71_,X_INTRODUCED_70_,4,X_INTRODUCED_69_,5,X_INTRODUCED_68_,9,X_INTRODUCED_67_,X_INTRODUCED_66_];
array [1..9] of var int: X_INTRODUCED_74_ ::var_is_introduced  = [X_INTRODUCED_65_,X_INTRODUCED_64_,X_INTRODUCED_63_,X_INTRODUCED_62_,7,X_INTRODUCED_61_,X_INTRODUCED_60_,X_INTRODUCED_59_,6];
array [1..9] of var int: X_INTRODUCED_75_ ::var_is_introduced  = [3,7,X_INTRODUCED_58_,X_INTRODUCED_57_,X_INTRODUCED_56_,X_INTRODUCED_55_,X_INTRODUCED_54_,X_INTRODUCED_53_,2];
array [1..9] of var int: X_INTRODUCED_76_ ::var_is_introduced  = [X_INTRODUCED_52_,X_INTRODUCED_51_,9,5,X_INTRODUCED_50_,X_INTRODUCED_49_,X_INTRODUCED_48_,8,X_INTRODUCED_47_];
array [1..9] of var int: X_INTRODUCED_77_ ::var_is_introduced  = [X_INTRODUCED_46_,X_INTRODUCED_45_,1,2,X_INTRODUCED_44_,4,3,X_INTRODUCED_43_,X_INTRODUCED_42_];
array [1..9] of var int: X_INTRODUCED_78_ ::var_is_introduced  = [X_INTRODUCED_41_,6,X_INTRODUCED_40_,X_INTRODUCED_39_,X_INTRODUCED_38_,9,2,X_INTRODUCED_37_,X_INTRODUCED_36_];
array [1..9] of var int: X_INTRODUCED_79_ ::var_is_introduced  = [2,X_INTRODUCED_35_,X_INTRODUCED_34_,X_INTRODUCED_33_,X_INTRODUCED_32_,X_INTRODUCED_31_,X_INTRODUCED_30_,9,3];
array [1..9] of var int: X_INTRODUCED_80_ ::var_is_introduced  = [1,X_INTRODUCED_29_,X_INTRODUCED_28_,X_INTRODUCED_27_,4,X_INTRODUCED_26_,X_INTRODUCED_25_,X_INTRODUCED_24_,X_INTRODUCED_23_];
array [1..9] of var int: X_INTRODUCED_81_ ::var_is_introduced  = [X_INTRODUCED_22_,X_INTRODUCED_21_,6,X_INTRODUCED_20_,2,X_INTRODUCED_19_,7,X_INTRODUCED_18_,X_INTRODUCED_17_];
array [1..9] of var int: X_INTRODUCED_82_ ::var_is_introduced  = [X_INTRODUCED_71_,X_INTRODUCED_65_,3,X_INTRODUCED_52_,X_INTRODUCED_46_,X_INTRODUCED_41_,2,1,X_INTRODUCED_22_];
array [1..9] of var int: X_INTRODUCED_83_ ::var_is_introduced  = [X_INTRODUCED_70_,X_INTRODUCED_64_,7,X_INTRODUCED_51_,X_INTRODUCED_45_,6,X_INTRODUCED_35_,X_INTRODUCED_29_,X_INTRODUCED_21_];
array [1..9] of var int: X_INTRODUCED_84_ ::var_is_introduced  = [4,X_INTRODUCED_63_,X_INTRODUCED_58_,9,1,X_INTRODUCED_40_,X_INTRODUCED_34_,X_INTRODUCED_28_,6];
array [1..9] of var int: X_INTRODUCED_85_ ::var_is_introduced  = [X_INTRODUCED_69_,X_INTRODUCED_62_,X_INTRODUCED_57_,5,2,X_INTRODUCED_39_,X_INTRODUCED_33_,X_INTRODUCED_27_,X_INTRODUCED_20_];
array [1..9] of var int: X_INTRODUCED_86_ ::var_is_introduced  = [5,7,X_INTRODUCED_56_,X_INTRODUCED_50_,X_INTRODUCED_44_,X_INTRODUCED_38_,X_INTRODUCED_32_,4,2];
array [1..9] of var int: X_INTRODUCED_87_ ::var_is_introduced  = [X_INTRODUCED_68_,X_INTRODUCED_61_,X_INTRODUCED_55_,X_INTRODUCED_49_,4,9,X_INTRODUCED_31_,X_INTRODUCED_26_,X_INTRODUCED_19_];
array [1..9] of var int: X_INTRODUCED_88_ ::var_is_introduced  = [9,X_INTRODUCED_60_,X_INTRODUCED_54_,X_INTRODUCED_48_,3,2,X_INTRODUCED_30_,X_INTRODUCED_25_,7];
array [1..9] of var int: X_INTRODUCED_89_ ::var_is_introduced  = [X_INTRODUCED_67_,X_INTRODUCED_59_,X_INTRODUCED_53_,8,X_INTRODUCED_43_,X_INTRODUCED_37_,9,X_INTRODUCED_24_,X_INTRODUCED_18_];
array [1..9] of var int: X_INTRODUCED_90_ ::var_is_introduced  = [X_INTRODUCED_66_,6,2,X_INTRODUCED_47_,X_INTRODUCED_42_,X_INTRODUCED_36_,3,X_INTRODUCED_23_,X_INTRODUCED_17_];
array [1..9] of var int: X_INTRODUCED_91_ ::var_is_introduced  = [X_INTRODUCED_71_,X_INTRODUCED_70_,4,X_INTRODUCED_65_,X_INTRODUCED_64_,X_INTRODUCED_63_,3,7,X_INTRODUCED_58_];
array [1..9] of var int: X_INTRODUCED_92_ ::var_is_introduced  = [X_INTRODUCED_69_,5,X_INTRODUCED_68_,X_INTRODUCED_62_,7,X_INTRODUCED_61_,X_INTRODUCED_57_,X_INTRODUCED_56_,X_INTRODUCED_55_];
array [1..9] of var int: X_INTRODUCED_93_ ::var_is_introduced  = [9,X_INTRODUCED_67_,X_INTRODUCED_66_,X_INTRODUCED_60_,X_INTRODUCED_59_,6,X_INTRODUCED_54_,X_INTRODUCED_53_,2];
array [1..9] of var int: X_INTRODUCED_94_ ::var_is_introduced  = [X_INTRODUCED_52_,X_INTRODUCED_51_,9,X_INTRODUCED_46_,X_INTRODUCED_45_,1,X_INTRODUCED_41_,6,X_INTRODUCED_40_];
array [1..9] of var int: X_INTRODUCED_95_ ::var_is_introduced  = [5,X_INTRODUCED_50_,X_INTRODUCED_49_,2,X_INTRODUCED_44_,4,X_INTRODUCED_39_,X_INTRODUCED_38_,9];
array [1..9] of var int: X_INTRODUCED_96_ ::var_is_introduced  = [X_INTRODUCED_48_,8,X_INTRODUCED_47_,3,X_INTRODUCED_43_,X_INTRODUCED_42_,2,X_INTRODUCED_37_,X_INTRODUCED_36_];
array [1..9] of var int: X_INTRODUCED_97_ ::var_is_introduced  = [2,X_INTRODUCED_35_,X_INTRODUCED_34_,1,X_INTRODUCED_29_,X_INTRODUCED_28_,X_INTRODUCED_22_,X_INTRODUCED_21_,6];
array [1..9] of var int: X_INTRODUCED_98_ ::var_is_introduced  = [X_INTRODUCED_33_,X_INTRODUCED_32_,X_INTRODUCED_31_,X_INTRODUCED_27_,4,X_INTRODUCED_26_,X_INTRODUCED_20_,2,X_INTRODUCED_19_];
array [1..9] of var int: X_INTRODUCED_99_ ::var_is_introduced  = [X_INTRODUCED_30_,9,3,X_INTRODUCED_25_,X_INTRODUCED_24_,X_INTRODUCED_23_,7,X_INTRODUCED_18_,X_INTRODUCED_17_];
constraint pumpkin_all_different(X_INTRODUCED_73_);
constraint pumpkin_all_different(X_INTRODUCED_74_);
constraint pumpkin_all_different(X_INTRODUCED_75_);
constraint pumpkin_all_different(X_INTRODUCED_76_);
constraint pumpkin_all_different(X_INTRODUCED_77_);
constraint pumpkin_all_different(X_INTRODUCED_78_);
constraint pumpkin_all_different(X_INTRODUCED_79_);
constraint pumpkin_all_different(X_INTRODUCED_80_);
constraint pumpkin_all_different(X_INTRODUCED_81_);
constraint pumpkin_all_different(X_INTRODUCED_82_):: domain;
constraint pumpkin_all_different(X_INTRODUCED_83_):: domain;
constraint pumpkin_all_different(X_INTRODUCED_84_):: domain;
constraint pumpkin_all_different(X_INTRODUCED_85_):: domain;
constraint pumpkin_all_different(X_INTRODUCED_86_):: domain;
constraint pumpkin_all_different(X_INTRODUCED_87_):: domain;
constraint pumpkin_all_different(X_INTRODUCED_88_):: domain;
constraint pumpkin_all_different(X_INTRODUCED_89_):: domain;
constraint pumpkin_all_different(X_INTRODUCED_90_):: domain;
constraint pumpkin_all_different(X_INTRODUCED_91_);
constraint pumpkin_all_different(X_INTRODUCED_92_);
constraint pumpkin_all_different(X_INTRODUCED_93_);
constraint pumpkin_all_different(X_INTRODUCED_94_);
constraint pumpkin_all_different(X_INTRODUCED_95_);
constraint pumpkin_all_different(X_INTRODUCED_96_);
constraint pumpkin_all_different(X_INTRODUCED_97_);
constraint pumpkin_all_different(X_INTRODUCED_98_);
constraint pumpkin_all_different(X_INTRODUCED_99_);
solve :: int_search(X_INTRODUCED_72_,first_fail,indomain_min,complete) satisfy;
